************************************************************************
file with basedata            : md351_.bas
initial value random generator: 323618701
************************************************************************
projects                      :  1
jobs (incl. supersource/sink ):  22
horizon                       :  171
RESOURCES
  - renewable                 :  2   R
  - nonrenewable              :  2   N
  - doubly constrained        :  0   D
************************************************************************
PROJECT INFORMATION:
pronr.  #jobs rel.date duedate tardcost  MPM-Time
    1     20      0       26       16       26
************************************************************************
PRECEDENCE RELATIONS:
jobnr.    #modes  #successors   successors
   1        1          3           2   3   4
   2        3          3          13  14  16
   3        3          2           6   9
   4        3          2           5  14
   5        3          2           7  16
   6        3          2           8  16
   7        3          3           8  17  18
   8        3          1          10
   9        3          3          10  12  18
  10        3          1          11
  11        3          1          13
  12        3          2          13  14
  13        3          2          15  20
  14        3          2          15  17
  15        3          2          19  21
  16        3          3          18  19  20
  17        3          2          19  20
  18        3          1          21
  19        3          1          22
  20        3          1          22
  21        3          1          22
  22        1          0        
************************************************************************
REQUESTS/DURATIONS:
jobnr. mode duration  R 1  R 2  N 1  N 2
------------------------------------------------------------------------
  1      1     0       0    0    0    0
  2      1     5       3    5    6    0
         2     9       3    5    3    0
         3     9       3    4    0   10
  3      1     5       8    2    5    0
         2     7       8    2    4    0
         3     9       6    1    4    0
  4      1     1       6    9   10    0
         2     5       5    9    0    7
         3     9       4    8    0    3
  5      1     1       6    7    0    5
         2     1       6    7    8    0
         3     8       6    6    6    0
  6      1     6       6    5    0    7
         2     8       6    4    0    7
         3    10       4    3    0    6
  7      1     2       7    6    4    0
         2     4       6    4    4    0
         3     5       1    2    0   10
  8      1     3       4    7    0    8
         2     6       4    6    0    5
         3     9       3    6    0    2
  9      1     6       6    6    0    3
         2     9       6    6    1    0
         3     9       6    5    0    2
 10      1     1       4    9    0    9
         2     3       3    8    6    0
         3     3       3    7    0    2
 11      1     1       6    9    0    9
         2     8       4    9    9    0
         3     9       4    6    9    0
 12      1     2       8    6    0    8
         2     2       9    8    4    0
         3     8       7    3    0    8
 13      1     3       4    7    6    0
         2     4       3    7    0    8
         3     6       3    6    0    4
 14      1     4       8    7    0    7
         2     6       8    6    0    7
         3    10       6    5    4    0
 15      1     1       5    2    0    3
         2     6       5    1    2    0
         3     9       5    1    0    2
 16      1     2       5    9    0    7
         2     7       4    4    7    0
         3    10       3    3    4    0
 17      1     5       8    9    0    4
         2     6       6    8    0    2
         3    10       4    8    3    0
 18      1     3       3    5    0    1
         2     6       2    4    4    0
         3    10       2    2    0    1
 19      1     4       4    7    0    5
         2     6       3    7    0    4
         3     8       3    7    0    3
 20      1     1       9    5    0    8
         2     4       8    5    1    0
         3    10       8    2    0    5
 21      1     2       6    5    0    2
         2     3       3    4   10    0
         3    10       2    2    9    0
 22      1     0       0    0    0    0
************************************************************************
RESOURCEAVAILABILITIES:
  R 1  R 2  N 1  N 2
   16   20   90  121
************************************************************************
MAXIMAL LAGS:
from  to  type  delay
    1   22   ES      0
    1    2   ES      0
    2   22   ES      0
    1    3   ES      0
    3   22   ES      0
    1    4   ES      0
    4   22   ES      0
    1    5   ES      0
    5   22   ES      0
    1    6   ES      0
    6   22   ES      0
    1    7   ES      0
    7   22   ES      0
    1    8   ES      0
    8   22   ES      0
    1    9   ES      0
    9   22   ES      0
    1   10   ES      0
   10   22   ES      0
    1   11   ES      0
   11   22   ES      0
    1   12   ES      0
   12   22   ES      0
    1   13   ES      0
   13   22   ES      0
    1   14   ES      0
   14   22   ES      0
    1   15   ES      0
   15   22   ES      0
    1   16   ES      0
   16   22   ES      0
    1   17   ES      0
   17   22   ES      0
    1   18   ES      0
   18   22   ES      0
    1   19   ES      0
   19   22   ES      0
    1   20   ES      0
   20   22   ES      0
    1   21   ES      0
   21   22   ES      0
    1   22   ES      0
    2   13   SS     11
    2   13   SE      3
    2   13   ES     -4
    2   13   EE     11
    2   14   SS     -9
    2   14   SE      5
    2   14   ES     -1
    2   14   EE      1
    2   16   SS     -5
    2   16   SE    -12
    2   16   ES     -8
    2   16   EE      2
    3    6   SS     -1
    3    6   SE    -12
    3    6   ES    -11
    3    6   EE    -12
    3    9   SS     -6
    3    9   SE    -11
    3    9   ES      9
    3    9   EE     -1
    4    5   SS     11
    4    5   SE      0
    4    5   ES     12
    4    5   EE      9
    4   14   SS      0
    4   14   SE     -9
    4   14   ES      6
    4   14   EE     12
    5    7   SS      7
    5    7   SE     -1
    5    7   ES      8
    5    7   EE     -6
    5   16   SS    -12
    5   16   SE     -1
   16    5   SE      0
    5   16   ES      0
    5   16   EE     -3
    6    8   SS     -9
    6    8   SE      5
    6    8   ES     -4
    6    8   EE     12
    6   16   SS      6
    6   16   SE     -6
    6   16   ES      2
    6   16   EE      5
    7    8   SS      9
    7    8   SE     -3
    7    8   ES      1
    7    8   EE      2
    7   17   SS      6
    7   17   SE    -11
    7   17   ES      4
    7   17   EE     12
    7   18   SS      3
    7   18   SE     11
    7   18   ES    -12
    7   18   EE      8
    8   10   SS     -9
    8   10   SE      4
    8   10   ES      3
    8   10   EE     -7
    9   10   SS      1
    9   10   SE      8
    9   10   ES    -11
    9   10   EE    -12
    9   12   SS     -9
    9   12   SE      8
    9   12   ES     12
    9   12   EE     -6
    9   18   SS      1
    9   18   SE     -1
    9   18   ES     10
    9   18   EE     -9
   10   11   SS    -11
   10   11   SE     -5
   10   11   ES     -4
   10   11   EE     -3
   11   13   SS     -3
   11   13   SE     -4
   11   13   ES     -8
   11   13   EE      7
   12   13   SS      7
   12   13   SE    -11
   12   13   ES      0
   12   13   EE      3
   12   14   SS     -4
   12   14   SE      9
   12   14   ES     -2
   12   14   EE      1
   13   15   SS      5
   13   15   SE      0
   13   15   ES     -1
   13   15   EE     -7
   13   20   SS     -3
   13   20   SE    -11
   13   20   ES      0
   13   20   EE     -8
   14   15   SS     12
   14   15   SE     -8
   14   15   ES     -9
   14   15   EE     -2
   14   17   SS     -1
   14   17   SE      7
   14   17   ES      7
   14   17   EE      1
   15   19   SS      3
   15   19   SE     -8
   15   19   ES     -2
   15   19   EE      1
   15   21   SS     12
   15   21   SE     -7
   15   21   ES     -7
   15   21   EE     -7
   16   18   SS     -9
   16   18   SE      7
   16   18   ES    -12
   16   18   EE     -2
   16   19   SS     -5
   16   19   SE     -6
   16   19   ES      8
   16   19   EE      8
   16   20   SS      9
   16   20   SE     -3
   16   20   ES      2
   16   20   EE    -12
   17   19   SS     -4
   17   19   SE      3
   17   19   ES     -3
   17   19   EE      3
   17   20   SS      0
   17   20   SE     -3
   17   20   ES      5
   17   20   EE     -3
   18   21   SS      9
   18   21   SE     -2
   18   21   ES     -1
   18   21   EE      7
************************************************************************
